p cnf 7230 17
-343 -3038 3379 0
-349 -3226 -3384 0
-347 -3228 -3382 0
-345 -3036 -3380 0
349 -3385 0
347 -3383 0
345 -3381 0
3384 3385 0
3382 3383 0
3380 3381 0
3226 -3385 0
3228 -3383 0
3036 -3381 0
-3378 -3379 0
3222 -3387 0
351 -3387 0
3378 3379 0
